Maximize
  0 x0 - 15 x1 + 0 x2 + 19 x3 + 0 x4 - 17 x5 + 0 x6 + 0 x7 + 0 x8 + 0 x9
   + 0 x10 + 0 x11 + 0 x12 + 0 x13 + 0 x14 - 11 x15 + 0 x16 + 0 x17 + 0 x18
   + 0 x19 + 0 x20 + 0 x21 + 0 x22 + 0 x23 + 0 x24 + 0 x25 + 0 x26 + 0 x27
   + 0 x28 + 0 x29 + 0 x30 + 0 x31 + 0 x32 + 0 x33 + 0 x34 - 6 x35 + 0 x36
   + 0 x37 + 0 x38 + 0 x39 + 0 x40 + 3 x41 + 0 x42 + 0 x43 - 7 x44 - 33 x45
   + 0 x46 + 9 x47 + 0 x48 + 0 x49 + 0 x50 + 0 x51 + 0 x52 + 0 x53 + 0 x54
   + 0 x55 + 16 x56 + 0 x57 + 43 x58 + 0 x59 + [ 22 x0 * x5 - 68 x0 * x16
   - 12 x0 * x20 + 86 x0 * x24 - 86 x0 * x32 - 52 x0 * x50 - 94 x0 * x51
   - 30 x0 * x54 - 34 x0 * x59 - 42 x1 * x11 + 82 x1 * x13 - 82 x1 * x19
   - 52 x1 * x28 - 40 x1 * x30 - 16 x1 * x34 + 88 x1 * x41 - 64 x1 * x53
   + 96 x1 * x55 - 90 x1 * x59 - 84 x2 * x6 + 90 x2 * x7 - 78 x2 * x8
   - 74 x2 * x14 - 16 x2 * x17 - 72 x2 * x20 - 44 x2 * x21 - 50 x2 * x26
   - 50 x2 * x30 + 88 x2 * x31 - 90 x2 * x36 - 68 x2 * x38 - 70 x2 * x41
   - 58 x2 * x44 - 58 x2 * x45 - 80 x2 * x47 - 66 x2 * x50 - 26 x2 * x52
   + 6 x2 * x57 - 92 x3 * x8 - 68 x3 * x11 + 90 x3 * x12 + 86 x3 * x21
   - 62 x3 * x25 + 16 x3 * x34 + 68 x3 * x40 - 14 x3 * x57 + 76 x3 * x58
   - 2 x4 * x6 - 38 x4 * x10 - 74 x4 * x13 - 62 x4 * x14 - 82 x4 * x19
   - 52 x4 * x22 + 36 x4 * x24 - 98 x4 * x28 - 52 x4 * x31 - 92 x4 * x35
   - 58 x4 * x49 + 70 x5 * x16 + 74 x5 * x24 + 18 x5 * x29 + 94 x5 * x30
   - 94 x5 * x31 - 68 x5 * x34 - 92 x5 * x39 + 80 x5 * x45 - 34 x6 * x8
   - 40 x6 * x19 + 30 x6 * x32 - 10 x6 * x35 + 10 x6 * x36 + 92 x6 * x46
   - 90 x6 * x54 - 74 x6 * x59 + 14 x7 ^2 - 36 x7 * x15 + 40 x7 * x16
   - 94 x7 * x25 - 70 x7 * x28 - 64 x7 * x33 - 52 x7 * x34 - 96 x7 * x41
   - 68 x7 * x43 - 26 x7 * x46 + 26 x8 * x9 - 12 x8 * x11 + 56 x8 * x25
   + 36 x8 * x26 + 18 x8 * x33 - 42 x8 * x44 - 18 x8 * x49 - 78 x8 * x56
   - 16 x8 * x58 - 90 x9 * x15 - 24 x9 * x18 - 62 x9 * x26 + 10 x9 * x29
   - 36 x9 * x39 - 90 x9 * x51 + 38 x10 ^2 - 74 x10 * x14 - 44 x10 * x17
   + 16 x10 * x19 - 2 x10 * x20 - 28 x10 * x40 + 18 x10 * x41
   - 34 x10 * x45 - 76 x10 * x56 + 16 x10 * x58 - 86 x10 * x59
   + 74 x11 * x12 + 96 x11 * x13 - 32 x11 * x19 + 26 x11 * x30
   - 32 x11 * x33 + 4 x11 * x40 + 32 x11 * x49 - 12 x11 * x55 + 4 x12 * x22
   - 46 x12 * x28 - 84 x12 * x32 + 24 x12 * x36 - 32 x12 * x37
   - 16 x12 * x38 - 20 x12 * x39 + 38 x12 * x51 + 32 x12 * x52
   - 4 x13 * x16 + 22 x13 * x17 - 20 x13 * x18 - 48 x13 * x20
   - 20 x13 * x21 + 64 x13 * x23 + 70 x13 * x25 + 16 x13 * x28
   + 62 x13 * x30 + 78 x13 * x31 + 90 x13 * x36 + 42 x13 * x46
   + 84 x13 * x50 - 50 x13 * x52 - 96 x13 * x54 - 16 x13 * x55
   - 36 x14 * x16 + 16 x14 * x20 + 52 x14 * x23 - 80 x14 * x45
   - 84 x14 * x50 - 34 x14 * x56 + 24 x15 ^2 - 62 x15 * x17 + 50 x15 * x22
   - 72 x15 * x24 - 94 x15 * x25 + 94 x15 * x27 + 52 x15 * x42
   + 12 x15 * x43 - 32 x15 * x45 - 62 x15 * x48 - 52 x15 * x52
   + 30 x15 * x54 - 20 x15 * x55 - 72 x16 * x20 - 64 x16 * x21
   - 78 x16 * x22 + 68 x16 * x39 + 72 x16 * x47 + 12 x16 * x56
   - 20 x16 * x58 - 24 x17 ^2 - 70 x17 * x22 + 70 x17 * x23 - 42 x17 * x27
   + 40 x17 * x41 - 98 x17 * x48 + 90 x17 * x53 - 92 x17 * x56
   - 94 x18 * x21 - 88 x18 * x22 - 60 x18 * x23 + 22 x18 * x29
   + 68 x18 * x33 + 26 x18 * x34 + 78 x18 * x35 + 10 x18 * x39
   - 20 x18 * x50 - 42 x18 * x54 + 50 x18 * x56 - 86 x18 * x57
   - 66 x19 * x20 + 76 x19 * x27 - 30 x19 * x37 - 66 x19 * x38
   - 84 x19 * x44 + 76 x19 * x46 + 28 x19 * x48 + 20 x19 * x50
   + 74 x19 * x53 + 72 x19 * x57 + 7 x20 ^2 - 26 x20 * x22 + 88 x20 * x29
   - 24 x20 * x40 - 6 x20 * x48 - 94 x21 * x27 - 94 x21 * x40
   + 36 x21 * x41 + 60 x21 * x42 - 2 x21 * x46 - 16 x21 * x47
   - 94 x21 * x48 + 54 x21 * x49 + 52 x21 * x57 - 42 x21 * x58
   - 98 x21 * x59 - 68 x22 * x32 - 34 x22 * x38 + 24 x22 * x39
   + 90 x22 * x40 + 28 x22 * x41 - 88 x22 * x43 - 66 x22 * x44
   - 20 x23 * x33 + 46 x23 * x35 - 74 x23 * x38 - 78 x23 * x47
   - 86 x23 * x50 - 66 x23 * x52 + 36 x23 * x54 + 80 x23 * x59
   - 80 x24 * x26 - 22 x24 * x38 + 12 x24 * x39 + 88 x24 * x40 - 23 x25 ^2
   + 74 x25 * x47 - 34 x25 * x53 + 94 x26 * x31 - 20 x26 * x41
   - 86 x26 * x42 - 60 x26 * x46 + 12 x26 * x48 - 18 x26 * x49
   - 68 x26 * x59 + 19 x27 ^2 - 76 x27 * x34 + 4 x27 * x36 - 54 x27 * x37
   - 56 x27 * x38 + 22 x27 * x50 - 60 x27 * x51 + 76 x27 * x52
   + 38 x27 * x58 - 12 x27 * x59 + 44 x28 * x32 + 18 x28 * x34
   - 44 x28 * x45 - 60 x28 * x47 + 88 x28 * x49 - 42 x28 * x53
   + 12 x28 * x55 - 24 x29 * x31 - 78 x29 * x33 - 66 x29 * x39
   - 20 x29 * x43 - 12 x29 * x45 - 52 x29 * x53 + 20 x30 * x50
   + 74 x30 * x52 - 24 x30 * x53 - 46 x31 * x32 - 30 x31 * x34
   - 88 x31 * x41 + 50 x31 * x49 + 46 x31 * x54 - 52 x32 * x36
   + 28 x32 * x49 + 70 x32 * x52 - 32 x32 * x53 + 36 x32 * x54
   + 88 x32 * x57 + 82 x33 * x40 - 34 x33 * x45 - 10 x33 * x48
   - 88 x33 * x59 - 96 x34 * x38 + 10 x34 * x43 + 18 x34 * x49
   - 96 x34 * x56 - 4 x35 * x38 + 30 x35 * x47 + 88 x35 * x49
   - 62 x35 * x51 + 52 x36 * x38 - 60 x36 * x44 - 80 x36 * x46
   + 98 x36 * x50 - 14 x36 * x55 + 68 x36 * x58 - 76 x37 * x43
   - 80 x37 * x44 + 30 x37 * x48 + 14 x37 * x50 + 56 x38 * x41
   - 24 x38 * x44 + 58 x38 * x53 + 78 x38 * x57 + 18 x39 * x47
   - 68 x39 * x49 - 40 x39 * x51 - 64 x39 * x54 + 82 x39 * x56
   - 68 x39 * x59 + 70 x40 * x43 - 36 x40 * x48 - 94 x40 * x55
   - 90 x41 * x47 - 16 x41 * x50 - 98 x42 * x53 - 6 x42 * x54
   + 36 x42 * x55 + 62 x42 * x56 - 32 x43 * x46 - 34 x43 * x54
   - 72 x43 * x55 - 34 x44 * x47 - 92 x44 * x52 + 10 x44 * x54
   - 94 x44 * x57 + 96 x44 * x58 - 78 x44 * x59 - 94 x45 * x46
   + 86 x45 * x51 - 12 x45 * x59 + 10 x46 * x56 + 46 x46 * x57
   + 34 x47 * x55 + 40 x47 * x57 - 62 x47 * x58 + 74 x48 * x57 + 10 x49 ^2
   + 92 x50 * x52 - 6 x50 * x57 + 54 x50 * x59 - 6 x52 * x56 + 6 x52 * x57
   - 52 x52 * x58 + 16 x53 * x55 + 38 x53 * x56 + 25 x54 ^2 - 47 x55 ^2
   - 98 x55 * x56 - 24 x56 * x57 ] / 2 
Subject To
Bounds
 x0 <= 1
 x1 <= 1
 x2 <= 1
 x3 <= 1
 x4 <= 1
 x5 <= 1
 x6 <= 1
 x7 <= 1
 x8 <= 1
 x9 <= 1
 x10 <= 1
 x11 <= 1
 x12 <= 1
 x13 <= 1
 x14 <= 1
 x15 <= 1
 x16 <= 1
 x17 <= 1
 x18 <= 1
 x19 <= 1
 x20 <= 1
 x21 <= 1
 x22 <= 1
 x23 <= 1
 x24 <= 1
 x25 <= 1
 x26 <= 1
 x27 <= 1
 x28 <= 1
 x29 <= 1
 x30 <= 1
 x31 <= 1
 x32 <= 1
 x33 <= 1
 x34 <= 1
 x35 <= 1
 x36 <= 1
 x37 <= 1
 x38 <= 1
 x39 <= 1
 x40 <= 1
 x41 <= 1
 x42 <= 1
 x43 <= 1
 x44 <= 1
 x45 <= 1
 x46 <= 1
 x47 <= 1
 x48 <= 1
 x49 <= 1
 x50 <= 1
 x51 <= 1
 x52 <= 1
 x53 <= 1
 x54 <= 1
 x55 <= 1
 x56 <= 1
 x57 <= 1
 x58 <= 1
 x59 <= 1
End
